(set-option :print-success false)
(set-logic QF_UF)
(declare-sort x4 0)
(declare-sort x27 0)
(declare-fun x109 () x27)
(declare-fun x124 () x27)
(declare-fun x80 (x27 x27) x27)
(declare-fun x104 () x27)
(declare-fun x138 () x27)
(declare-fun x131 (x27 x27) x27)
(declare-fun x76 () x27)
(assert (or (or (or (and (not (= x124 (x131 x104 (x131 x124 x104)))) (and (and (not (= x124 (x131 x124 (x131 x124 x124)))) (and (not (= x124 (x131 x138 (x131 x124 x138)))) (not (= x124 (x131 x109 (x131 x124 x109)))))) (not (= (x131 x76 (x131 x124 x76)) x124)))) (or (and (and (not (= x138 (x131 x76 (x131 x138 x76)))) (and (not (= x138 (x131 x124 (x131 x138 x124)))) (and (not (= x138 (x131 x109 (x131 x138 x109)))) (not (= x138 (x131 x138 (x131 x138 x138))))))) (not (= (x131 x104 (x131 x138 x104)) x138))) (and (not (= (x131 x104 (x131 x109 x104)) x109)) (and (not (= x109 (x131 x76 (x131 x109 x76)))) (and (not (= (x131 x124 (x131 x109 x124)) x109)) (and (not (= x109 (x131 x138 (x131 x109 x138)))) (not (= (x131 x109 (x131 x109 x109)) x109)))))))) (and (not (= (x131 x104 (x131 x76 x104)) x76)) (and (and (not (= x76 (x131 x124 (x131 x76 x124)))) (and (not (= x76 (x131 x109 (x131 x76 x109)))) (not (= x76 (x131 x138 (x131 x76 x138)))))) (not (= x76 (x131 x76 (x131 x76 x76))))))) (and (and (not (= (x131 x76 (x131 x104 x76)) x104)) (and (not (= (x131 x124 (x131 x104 x124)) x104)) (and (not (= x104 (x131 x109 (x131 x104 x109)))) (not (= x104 (x131 x138 (x131 x104 x138))))))) (not (= x104 (x131 x104 (x131 x104 x104)))))))
(assert (let ((x31 (x131 x138 x124)) (x140 (x131 x76 x104)) (x21 (x131 x109 x124)) (x153 (x131 x76 x109)) (x129 (x131 x104 x124)) (x71 (x131 x76 x124)) (x105 (x131 x124 x104)) (x78 (x131 x109 x138)) (x3 (x131 x109 x109)) (x65 (x131 x124 x76)) (x82 (x131 x109 x76)) (x53 (x131 x76 x138)) (x119 (x131 x124 x124)) (x123 (x131 x104 x104)) (x38 (x131 x138 x76)) (x137 (x131 x104 x138)) (x73 (x131 x124 x138)) (x55 (x131 x104 x76)) (x1 (x131 x138 x109)) (x87 (x131 x124 x109)) (x130 (x131 x138 x104)) (x116 (x131 x104 x109)) (x155 (x131 x76 x76)) (x58 (x131 x109 x104)) (x40 (x131 x138 x138))) (let ((x19 (= x55 x104)) (x11 (= x3 x104)) (x6 (= x138 x78)) (x75 (= x76 x119)) (x22 (= x124 x55)) (x118 (= x104 x73)) (x133 (= x71 x104)) (x17 (= x1 x104)) (x77 (= x129 x76)) (x57 (= x116 x104)) (x16 (= x153 x109)) (x42 (= x109 x71)) (x86 (= x87 x124)) (x117 (= x76 x38)) (x151 (= x109 x58)) (x14 (= x109 x40)) (x47 (= x124 x78)) (x152 (= x119 x138)) (x91 (= x58 x104)) (x13 (= x53 x76)) (x34 (= x76 x137)) (x111 (= x3 x138)) (x154 (= x119 x124)) (x127 (= x138 x153)) (x156 (= x82 x124)) (x25 (= x109 x38)) (x120 (= x76 x73)) (x43 (= x140 x109)) (x149 (= x124 x58)) (x49 (= x119 x109)) (x90 (= x130 x124)) (x126 (= x137 x138)) (x143 (= x1 x124)) (x46 (= x124 x116)) (x69 (= x109 x78)) (x115 (= x104 x130)) (x36 (= x65 x109)) (x67 (= x130 x138)) (x141 (= x40 x138)) (x45 (= x76 x31)) (x145 (= x87 x104)) (x20 (= x109 x129)) (x59 (= x53 x138)) (x103 (= x55 x138)) (x74 (= x124 x140)) (x106 (= x153 x104)) (x88 (= x104 x123)) (x142 (= x104 x21)) (x5 (= x155 x138)) (x9 (= x109 x53)) (x146 (= x137 x109)) (x97 (= x124 x105)) (x107 (= x71 x138)) (x44 (= x124 x31)) (x23 (= x130 x109)) (x95 (= x109 x1)) (x157 (= x124 x71)) (x70 (= x124 x65)) (x72 (= x1 x76)) (x68 (= x104 x40)) (x66 (= x124 x153)) (x85 (= x140 x138)) (x125 (= x140 x104)) (x94 (= x71 x76)) (x134 (= x105 x109)) (x48 (= x3 x76)) (x93 (= x104 x65)) (x158 (= x123 x138)) (x122 (= x21 x124)) (x100 (= x138 x116)) (x144 (= x76 x105)) (x150 (= x76 x140)) (x136 (= x109 x82)) (x7 (= x87 x138)) (x33 (= x109 x3)) (x132 (= x109 x123)) (x159 (= x82 x104)) (x26 (= x82 x138)) (x148 (= x129 x124)) (x63 (= x38 x138)) (x113 (= x58 x138)) (x12 (= x76 x40)) (x61 (= x38 x104)) (x101 (= x109 x31)) (x10 (= x155 x109)) (x18 (= x55 x109)) (x96 (= x78 x104)) (x79 (= x21 x109)) (x8 (= x155 x124)) (x92 (= x104 x155)) (x64 (= x3 x124)) (x112 (= x73 x109)) (x29 (= x78 x76)) (x89 (= x123 x124)) (x2 (= x116 x76)) (x98 (= x138 x31)) (x84 (= x73 x138)) (x83 (= x124 x53)) (x28 (= x137 x104)) (x37 (= x104 x53)) (x50 (= x124 x137)) (x35 (= x65 x76)) (x128 (= x153 x76)) (x39 (= x21 x76)) (x110 (= x124 x73)) (x108 (= x129 x138)) (x30 (= x124 x40)) (x81 (= x58 x76)) (x135 (= x138 x1)) (x41 (= x76 x55)) (x62 (= x76 x82)) (x60 (= x104 x129)) (x52 (= x155 x76)) (x15 (= x104 x105)) (x121 (= x38 x124)) (x147 (= x76 x130)) (x114 (= x87 x76)) (x102 (= x104 x31)) (x139 (= x138 x21)) (x32 (= x138 x65)) (x51 (= x138 x105)) (x56 (= x109 x87)) (x24 (= x104 x119)) (x99 (= x109 x116)) (x54 (= x123 x76))) (and (and (and (or (or (or (or (or (and (not x118) x50) (and (not x145) x46)) (and (not x24) x148)) (and (not x93) x22)) (and (not x15) x89)) (or (or (or (and x8 (not x35)) (or (and x157 (not x75)) (or (and (not x114) x66) (and (not x120) x83)))) (and (not x144) x74)) (or (or (or (or (and (not x32) x121) (or (and x44 (not x152)) (or (and x143 (not x7)) (and (not x84) x30)))) (and x90 (not x51))) (or (and x149 (not x134)) (or (and (not x36) x156) (or (and (not x49) x122) (or (and x47 (not x112)) (and (not x56) x64)))))) (or (or (and x70 (not x70)) (or (or (and x86 (not x86)) (and (not x110) x110)) (and x154 (not x154)))) (and x97 (not x97)))))) (and (or (or (or (or (and (not x62) x10) (or (and x42 (not x39)) (or (and (not x48) x16) (and x9 (not x29))))) (and (not x81) x43)) (or (or (or (or (and (not x26) x25) (or (and x101 (not x139)) (or (and (not x111) x95) (and x14 (not x6))))) (and (not x113) x23)) (or (and (not x151) x151) (or (and (not x136) x136) (or (or (and (not x69) x69) (and x33 (not x33))) (and x79 (not x79)))))) (or (and (not x149) x134) (or (and x36 (not x156)) (or (or (and (not x64) x56) (and x112 (not x47))) (and (not x122) x49)))))) (or (or (or (and x20 (not x142)) (or (and x146 (not x96)) (and x99 (not x11)))) (and (not x159) x18)) (and (not x91) x132))) (or (or (or (or (and (not x102) x108) (or (and (not x68) x126) (and (not x17) x100))) (and x103 (not x61))) (and x158 (not x115))) (or (or (or (or (and (not x121) x32) (or (and x152 (not x44)) (or (and (not x30) x84) (and (not x143) x7)))) (and x51 (not x90))) (or (or (or (or (and x139 (not x101)) (or (and (not x95) x111) (and x6 (not x14)))) (and (not x25) x26)) (and x113 (not x23))) (or (or (and (not x63) x63) (or (or (and (not x141) x141) (and (not x135) x135)) (and (not x98) x98))) (and x67 (not x67))))) (or (or (or (or (and (not x12) x59) (and x127 (not x72))) (and x107 (not x45))) (and x5 (not x117))) (and x85 (not x147))))))) (or (or (and (not x125) x54) (or (or (or (and (not x37) x34) (and x2 (not x106))) (and x77 (not x133))) (and (not x92) x41))) (or (or (or (or (and x35 (not x8)) (or (and x75 (not x157)) (or (and x114 (not x66)) (and (not x83) x120)))) (and (not x74) x144)) (or (or (or (and (not x10) x62) (or (or (and (not x16) x48) (and (not x9) x29)) (and x39 (not x42)))) (and x81 (not x43))) (or (or (or (or (and x12 (not x59)) (and x72 (not x127))) (and (not x107) x45)) (and (not x5) x117)) (and x147 (not x85))))) (or (or (and (not x52) x52) (or (or (and (not x13) x13) (and (not x128) x128)) (and (not x94) x94))) (and x150 (not x150)))))) (or (or (or (or (and x15 (not x89)) (or (or (or (and x145 (not x46)) (and (not x50) x118)) (and (not x148) x24)) (and (not x22) x93))) (or (or (and (not x158) x115) (or (and x61 (not x103)) (or (and x102 (not x108)) (or (and (not x100) x17) (and x68 (not x126)))))) (or (or (and x159 (not x18)) (or (or (and (not x146) x96) (and x11 (not x99))) (and x142 (not x20)))) (and (not x132) x91)))) (or (or (or (and x133 (not x77)) (or (and (not x34) x37) (and x106 (not x2)))) (and (not x41) x92)) (and (not x54) x125))) (or (and x88 (not x88)) (or (or (and x60 (not x60)) (or (and x28 (not x28)) (and x57 (not x57)))) (and x19 (not x19)))))))))
(assert (let ((x71 (x131 x109 x109)) (x129 (x131 x76 x109)) (x32 (x131 x76 x124)) (x136 (x131 x138 x109)) (x79 (x131 x138 x138)) (x134 (x131 x104 x76)) (x73 (x131 x124 x138)) (x116 (x131 x109 x76)) (x121 (x131 x124 x76)) (x105 (x131 x104 x138)) (x90 (x131 x124 x104)) (x55 (x131 x109 x104)) (x51 (x131 x104 x124)) (x44 (x131 x124 x124)) (x127 (x131 x104 x104)) (x149 (x131 x76 x104)) (x151 (x131 x138 x124)) (x140 (x131 x109 x124)) (x156 (x131 x76 x76)) (x137 (x131 x124 x109)) (x87 (x131 x138 x76)) (x58 (x131 x109 x138)) (x123 (x131 x104 x109)) (x65 (x131 x138 x104)) (x119 (x131 x76 x138))) (let ((x67 (not (= x138 x73))) (x95 (not (= x138 x116))) (x92 (not (= x105 x104))) (x7 (not (= x109 x140))) (x53 (not (= x58 x109))) (x157 (not (= x124 x51))) (x135 (not (= x58 x138))) (x3 (not (= x138 x134))) (x111 (not (= x32 x138))) (x108 (not (= x87 x76))) (x155 (not (= x71 x109))) (x74 (not (= x124 x127))) (x20 (not (= x51 x76))) (x86 (not (= x109 x65))) (x78 (not (= x51 x138))) (x49 (not (= x121 x109))) (x47 (not (= x109 x119))) (x69 (not (= x90 x138))) (x48 (not (= x140 x124))) (x82 (not (= x109 x79))) (x114 (not (= x124 x65))) (x81 (not (= x124 x32))) (x68 (not (= x151 x76))) (x52 (not (= x71 x76))) (x60 (not (= x134 x104))) (x6 (not (= x129 x138))) (x36 (not (= x109 x156))) (x85 (not (= x73 x124))) (x16 (not (= x44 x124))) (x115 (not (= x32 x76))) (x118 (not (= x79 x104))) (x31 (not (= x140 x138))) (x141 (not (= x79 x138))) (x25 (not (= x138 x105))) (x62 (not (= x129 x124))) (x75 (not (= x124 x55))) (x35 (not (= x124 x90))) (x122 (not (= x109 x32))) (x107 (not (= x79 x124))) (x46 (not (= x71 x104))) (x117 (not (= x58 x124))) (x13 (not (= x79 x76))) (x14 (not (= x138 x87))) (x42 (not (= x87 x124))) (x99 (not (= x76 x123))) (x89 (not (= x119 x104))) (x38 (not (= x44 x138))) (x142 (not (= x76 x55))) (x154 (not (= x123 x109))) (x45 (not (= x127 x109))) (x5 (not (= x124 x136))) (x91 (not (= x149 x76))) (x41 (not (= x65 x104))) (x17 (not (= x140 x76))) (x21 (not (= x138 x127))) (x144 (not (= x149 x124))) (x148 (not (= x151 x104))) (x120 (not (= x124 x156))) (x64 (not (= x129 x109))) (x9 (not (= x124 x137))) (x110 (not (= x109 x105))) (x56 (not (= x109 x116))) (x126 (not (= x76 x137))) (x50 (not (= x104 x58))) (x83 (not (= x124 x105))) (x143 (not (= x137 x109))) (x23 (not (= x138 x123))) (x37 (not (= x87 x104))) (x139 (not (= x138 x156))) (x147 (not (= x124 x71))) (x54 (not (= x104 x55))) (x100 (not (= x76 x44))) (x22 (not (= x104 x140))) (x93 (not (= x137 x104))) (x34 (not (= x129 x104))) (x88 (not (= x104 x127))) (x145 (not (= x104 x136))) (x132 (not (= x76 x127))) (x40 (not (= x151 x138))) (x18 (not (= x76 x134))) (x102 (not (= x119 x76))) (x158 (not (= x76 x121))) (x125 (not (= x123 x104))) (x8 (not (= x134 x124))) (x24 (not (= x104 x73))) (x146 (not (= x105 x76))) (x12 (not (= x109 x90))) (x103 (not (= x116 x76))) (x57 (not (= x90 x104))) (x152 (not (= x109 x44))) (x94 (not (= x76 x136))) (x70 (not (= x109 x55))) (x26 (not (= x138 x65))) (x29 (not (= x151 x124))) (x66 (not (= x124 x123))) (x84 (not (= x151 x109))) (x112 (not (= x87 x109))) (x96 (not (= x156 x76))) (x28 (not (= x104 x51))) (x101 (not (= x121 x138))) (x59 (not (= x134 x109))) (x43 (not (= x124 x121))) (x30 (not (= x73 x109))) (x39 (not (= x124 x119))) (x2 (not (= x32 x104))) (x11 (not (= x65 x76))) (x130 (not (= x138 x119))) (x33 (not (= x138 x149))) (x61 (not (= x76 x129))) (x15 (not (= x104 x44))) (x97 (not (= x109 x51))) (x106 (not (= x116 x104))) (x113 (not (= x138 x55))) (x153 (not (= x109 x136))) (x10 (not (= x116 x124))) (x98 (not (= x138 x136))) (x159 (not (= x90 x76))) (x72 (not (= x109 x149))) (x1 (not (= x138 x137))) (x63 (not (= x138 x71))) (x77 (not (= x104 x156))) (x19 (not (= x149 x104))) (x150 (not (= x76 x73))) (x133 (not (= x121 x104))) (x128 (not (= x76 x58)))) (or (and (and (and (or x60 x19) (and (or x28 x57) (and (or x92 x41) (or x54 x125)))) (or x88 x88)) (and (and (and (and (or x133 x2) (and (and (or x24 x148) (or x93 x22)) (or x15 x15))) (or x28 x57)) (and (and (or x92 x41) (and (and (and (or x118 x118) (or x145 x50)) (or x24 x148)) (or x89 x37))) (and (or x54 x125) (and (or x106 x34) (and (and (or x50 x145) (or x46 x46)) (or x22 x93)))))) (and (or x60 x19) (and (or x77 x77) (and (and (or x106 x34) (or x37 x89)) (or x2 x133)))))) (or (or (or (and (and (and (or x33 x3) (and (and (or x111 x101) (and (or x6 x95) (or x14 x130))) (or x139 x139))) (and (and (and (or x26 x25) (and (and (and (or x141 x141) (or x135 x98)) (or x67 x40)) (or x130 x14))) (and (and (and (or x1 x31) (and (or x63 x63) (or x98 x135))) (or x95 x6)) (or x23 x113))) (and (and (or x111 x101) (and (and (or x1 x31) (or x67 x40)) (or x38 x38))) (or x69 x78)))) (and (or x21 x21) (and (and (or x69 x78) (and (or x25 x26) (or x23 x113))) (or x33 x3)))) (and (and (and (and (and (and (or x47 x112) (and (and (or x82 x82) (or x53 x153)) (or x84 x30))) (or x86 x110)) (and (and (and (and (or x155 x155) (or x153 x53)) (or x143 x7)) (or x56 x64)) (or x154 x70))) (and (or x97 x12) (and (and (or x152 x152) (and (or x30 x84) (or x143 x7))) (or x122 x49)))) (and (or x72 x59) (and (and (or x122 x49) (and (or x56 x64) (or x47 x112))) (or x36 x36)))) (and (or x45 x45) (and (and (or x97 x12) (and (or x154 x70) (or x110 x86))) (or x72 x59))))) (and (and (and (or x8 x144) (and (or x35 x157) (and (or x114 x83) (or x66 x75)))) (or x74 x74)) (and (and (and (or x35 x157) (and (and (and (or x48 x9) (or x85 x29)) (or x16 x16)) (or x43 x81))) (and (and (or x83 x114) (and (and (or x29 x85) (and (or x117 x5) (or x107 x107))) (or x42 x39))) (and (or x75 x66) (and (or x10 x62) (and (and (or x147 x147) (or x117 x5)) (or x48 x9)))))) (and (or x8 x144) (and (and (and (or x42 x39) (or x10 x62)) (or x81 x43)) (or x120 x120)))))) (and (and (and (or x18 x91) (and (or x96 x96) (and (or x158 x115) (and (or x103 x61) (or x108 x102))))) (and (and (and (and (or x61 x103) (and (and (or x128 x94) (or x52 x52)) (or x17 x126))) (or x142 x99)) (and (and (or x102 x108) (and (and (or x94 x128) (or x13 x13)) (or x150 x68))) (or x146 x11))) (and (or x20 x159) (and (or x115 x158) (and (or x100 x100) (and (or x68 x150) (or x126 x17))))))) (and (and (and (or x159 x20) (and (or x142 x99) (or x11 x146))) (or x91 x18)) (or x132 x132))))))))
(assert (or (and (not (= (x131 (x131 x104 x104) x104) x104)) (and (not (= (x131 (x131 x104 x76) x104) x76)) (and (not (= (x131 (x131 x104 x124) x104) x124)) (and (not (= x109 (x131 (x131 x104 x109) x104))) (not (= (x131 (x131 x104 x138) x104) x138)))))) (or (and (and (not (= x76 (x131 (x131 x76 x76) x76))) (and (and (not (= (x131 (x131 x76 x109) x76) x109)) (not (= (x131 (x131 x76 x138) x76) x138))) (not (= x124 (x131 (x131 x76 x124) x76))))) (not (= x104 (x131 (x131 x76 x104) x76)))) (or (and (and (and (not (= (x131 (x131 x124 x124) x124) x124)) (and (not (= x109 (x131 (x131 x124 x109) x124))) (not (= x138 (x131 (x131 x124 x138) x124))))) (not (= (x131 (x131 x124 x76) x124) x76))) (not (= (x131 (x131 x124 x104) x124) x104))) (or (and (and (not (= (x131 (x131 x138 x76) x138) x76)) (and (and (not (= x138 (x131 (x131 x138 x138) x138))) (not (= (x131 (x131 x138 x109) x138) x109))) (not (= (x131 (x131 x138 x124) x138) x124)))) (not (= x104 (x131 (x131 x138 x104) x138)))) (and (and (and (and (not (= x109 (x131 (x131 x109 x109) x109))) (not (= x138 (x131 (x131 x109 x138) x109)))) (not (= (x131 (x131 x109 x124) x109) x124))) (not (= (x131 (x131 x109 x76) x109) x76))) (not (= (x131 (x131 x109 x104) x109) x104))))))))
(assert (let ((x141 (x131 x138 x138)) (x98 (x131 x124 x124)) (x67 (x131 x104 x104)) (x135 (x131 x109 x109)) (x63 (x131 x76 x76))) (let ((x6 (= (x131 x76 x63) x76)) (x40 (= (x131 x138 x141) x138)) (x111 (= x104 (x131 x104 x67))) (x95 (= x76 x63)) (x130 (= x124 (x131 x124 x98))) (x31 (= x109 (x131 x109 x135))) (x38 (= x135 x109)) (x1 (= x141 x138)) (x101 (= x104 x67)) (x14 (= x124 x98))) (and (and (or (or x101 (or (or (or (= x109 (x131 x109 x104)) (= (x131 x138 x104) x138)) (= x124 (x131 x124 x104))) (= (x131 x76 x104) x76))) (not x111)) (and (or (not x6) (or (or (or (or (= (x131 x109 x76) x109) (= x138 (x131 x138 x76))) (= x124 (x131 x124 x76))) x95) (= x104 (x131 x104 x76)))) (and (and (or (not x31) (or (= x104 (x131 x104 x109)) (or (= (x131 x76 x109) x76) (or (or x38 (= (x131 x138 x109) x138)) (= (x131 x124 x109) x124))))) (or (not x40) (or (= (x131 x104 x138) x104) (or (or (or (= (x131 x109 x138) x109) x1) (= x124 (x131 x124 x138))) (= x76 (x131 x76 x138)))))) (or (not x130) (or (or (= x76 (x131 x76 x124)) (or x14 (or (= x138 (x131 x138 x124)) (= x109 (x131 x109 x124))))) (= (x131 x104 x124) x104)))))) (or (or (or (or (and (and (not (= x67 x138)) (and (not (= x63 x138)) (and (not (= x98 x138)) (and (not x1) (not (= x135 x138)))))) x40) (and (and (not (= x109 x67)) (and (and (not (= x98 x109)) (and (not (= x141 x109)) (not x38))) (not (= x109 x63)))) x31)) (and x130 (and (and (not (= x63 x124)) (and (and (not (= x124 x135)) (not (= x124 x141))) (not x14))) (not (= x124 x67))))) (and x6 (and (and (not x95) (and (not (= x98 x76)) (and (not (= x76 x135)) (not (= x76 x141))))) (not (= x76 x67))))) (and (and (and (not (= x63 x104)) (and (and (not (= x104 x135)) (not (= x141 x104))) (not (= x104 x98)))) (not x101)) x111))))))
(assert (and (or (or (or (or (= (x131 x109 x104) x109) (= (x131 x138 x104) x138)) (= (x131 x124 x104) x124)) (= x76 (x131 x76 x104))) (= x104 (x131 x104 x104))) (and (or (or (or (or (= (x131 x109 x76) x109) (= x138 (x131 x138 x76))) (= x124 (x131 x124 x76))) (= x76 (x131 x76 x76))) (= (x131 x104 x76) x104)) (and (and (or (= (x131 x104 x138) x104) (or (= x76 (x131 x76 x138)) (or (= (x131 x124 x138) x124) (or (= (x131 x138 x138) x138) (= x109 (x131 x109 x138)))))) (or (or (= (x131 x76 x109) x76) (or (or (= x138 (x131 x138 x109)) (= x109 (x131 x109 x109))) (= (x131 x124 x109) x124))) (= (x131 x104 x109) x104))) (or (= (x131 x104 x124) x104) (or (or (= x124 (x131 x124 x124)) (or (= (x131 x109 x124) x109) (= (x131 x138 x124) x138))) (= (x131 x76 x124) x76)))))))
(assert (or (and (not (= x104 (x131 x104 (x131 x104 x104)))) (and (not (= (x131 x104 (x131 x104 x76)) x76)) (and (and (not (= (x131 x104 (x131 x104 x109)) x109)) (not (= (x131 x104 (x131 x104 x138)) x138))) (not (= x124 (x131 x104 (x131 x104 x124))))))) (or (and (and (and (and (not (= x109 (x131 x76 (x131 x76 x109)))) (not (= x138 (x131 x76 (x131 x76 x138))))) (not (= (x131 x76 (x131 x76 x124)) x124))) (not (= (x131 x76 (x131 x76 x76)) x76))) (not (= x104 (x131 x76 (x131 x76 x104))))) (or (and (not (= (x131 x124 (x131 x124 x104)) x104)) (and (and (not (= x124 (x131 x124 (x131 x124 x124)))) (and (not (= (x131 x124 (x131 x124 x138)) x138)) (not (= (x131 x124 (x131 x124 x109)) x109)))) (not (= (x131 x124 (x131 x124 x76)) x76)))) (or (and (and (and (and (not (= x109 (x131 x109 (x131 x109 x109)))) (not (= (x131 x109 (x131 x109 x138)) x138))) (not (= x124 (x131 x109 (x131 x109 x124))))) (not (= (x131 x109 (x131 x109 x76)) x76))) (not (= x104 (x131 x109 (x131 x109 x104))))) (and (not (= x104 (x131 x138 (x131 x138 x104)))) (and (and (and (not (= (x131 x138 (x131 x138 x138)) x138)) (not (= x109 (x131 x138 (x131 x138 x109))))) (not (= x124 (x131 x138 (x131 x138 x124))))) (not (= x76 (x131 x138 (x131 x138 x76)))))))))))
(assert (and (and (= (x131 x124 x124) x76) (and (= x109 (x131 x124 x138)) (= x138 (x131 x124 x76)))) (= (x131 x76 x109) x104)))
(assert (let ((x6 (x131 x124 x109)) (x26 (x131 x76 x124)) (x31 (x131 x109 x124)) (x25 (x131 x76 x109)) (x113 (x131 x76 x104)) (x67 (x131 x138 x104)) (x130 (x131 x109 x104)) (x95 (x131 x124 x124)) (x78 (x131 x104 x138)) (x14 (x131 x124 x138)) (x63 (x131 x138 x76)) (x111 (x131 x124 x76)) (x23 (x131 x76 x76)) (x69 (x131 x104 x109)) (x139 (x131 x76 x138)) (x33 (x131 x104 x76)) (x101 (x131 x124 x104)) (x141 (x131 x138 x138)) (x40 (x131 x109 x138)) (x38 (x131 x109 x76)) (x3 (x131 x104 x124)) (x98 (x131 x138 x124)) (x1 (x131 x109 x109)) (x135 (x131 x138 x109)) (x21 (x131 x104 x104))) (and (and (and (and (and (and (and (and (or (or (or (= x141 x124) (or (= x141 x109) (= x141 x138))) (= x76 x141)) (= x141 x104)) (or (= x135 x104) (or (= x76 x135) (or (= x135 x124) (or (= x135 x138) (= x109 x135)))))) (or (or (or (= x98 x124) (or (= x98 x109) (= x138 x98))) (= x76 x98)) (= x104 x98))) (or (or (or (= x124 x63) (or (= x63 x138) (= x63 x109))) (= x63 x76)) (= x63 x104))) (or (= x67 x104) (or (or (= x124 x67) (or (= x109 x67) (= x138 x67))) (= x67 x76)))) (and (or (= x130 x104) (or (= x76 x130) (or (or (= x130 x109) (= x130 x138)) (= x124 x130)))) (and (and (or (or (= x76 x31) (or (= x124 x31) (or (= x31 x109) (= x138 x31)))) (= x104 x31)) (and (or (= x104 x1) (or (= x76 x1) (or (= x124 x1) (or (= x1 x138) (= x1 x109))))) (or (= x40 x104) (or (= x40 x76) (or (= x40 x124) (or (= x40 x138) (= x109 x40))))))) (or (or (= x76 x38) (or (= x124 x38) (or (= x109 x38) (= x138 x38)))) (= x38 x104))))) (and (or (or (or (= x124 x101) (or (= x138 x101) (= x101 x109))) (= x101 x76)) (= x104 x101)) (and (or (= x111 x104) (or (= x76 x111) (or (= x111 x124) (or (= x109 x111) (= x138 x111))))) (and (or (or (= x76 x95) (or (or (= x95 x109) (= x138 x95)) (= x95 x124))) (= x95 x104)) (and (or (or (or (or (= x6 x109) (= x6 x138)) (= x124 x6)) (= x6 x76)) (= x104 x6)) (or (= x104 x14) (or (or (= x14 x124) (or (= x109 x14) (= x14 x138))) (= x76 x14)))))))) (and (and (and (and (or (or (= x76 x25) (or (= x124 x25) (or (= x25 x138) (= x109 x25)))) (= x25 x104)) (or (or (= x76 x139) (or (= x139 x124) (or (= x139 x138) (= x139 x109)))) (= x104 x139))) (or (= x26 x104) (or (= x26 x76) (or (or (= x26 x109) (= x138 x26)) (= x124 x26))))) (or (= x23 x104) (or (or (or (= x23 x109) (= x23 x138)) (= x124 x23)) (= x23 x76)))) (or (= x113 x104) (or (or (= x124 x113) (or (= x113 x138) (= x109 x113))) (= x76 x113))))) (and (and (and (or (or (or (= x124 x3) (or (= x109 x3) (= x138 x3))) (= x76 x3)) (= x104 x3)) (and (or (or (= x76 x78) (or (= x78 x124) (or (= x78 x138) (= x78 x109)))) (= x104 x78)) (or (or (= x76 x69) (or (or (= x69 x138) (= x109 x69)) (= x124 x69))) (= x104 x69)))) (or (= x33 x104) (or (= x76 x33) (or (= x33 x124) (or (= x109 x33) (= x138 x33)))))) (or (= x21 x104) (or (or (or (= x109 x21) (= x21 x138)) (= x21 x124)) (= x76 x21)))))))
(assert (and (and (and (and (and (not (= x109 x76)) (and (and (not (= x104 x138)) (and (not (= x138 x76)) (and (not (= x109 x138)) (not (= x124 x138))))) (not (= x124 x109)))) (not (= x109 x104))) (not (= x76 x124))) (not (= x104 x124))) (not (= x76 x104))))
(assert (and (and (and (and (or (or (= (x131 (x131 x76 x138) x138) x76) (or (= (x131 (x131 x124 x138) x138) x124) (or (= x138 (x131 (x131 x138 x138) x138)) (= (x131 (x131 x109 x138) x138) x109)))) (= x104 (x131 (x131 x104 x138) x138))) (or (or (or (= x124 (x131 (x131 x124 x109) x109)) (or (= (x131 (x131 x109 x109) x109) x109) (= x138 (x131 (x131 x138 x109) x109)))) (= (x131 (x131 x76 x109) x109) x76)) (= (x131 (x131 x104 x109) x109) x104))) (or (or (= x76 (x131 (x131 x76 x124) x124)) (or (= (x131 (x131 x124 x124) x124) x124) (or (= x109 (x131 (x131 x109 x124) x124)) (= x138 (x131 (x131 x138 x124) x124))))) (= (x131 (x131 x104 x124) x124) x104))) (or (= (x131 (x131 x104 x76) x76) x104) (or (or (= (x131 (x131 x124 x76) x76) x124) (or (= (x131 (x131 x109 x76) x76) x109) (= x138 (x131 (x131 x138 x76) x76)))) (= x76 (x131 (x131 x76 x76) x76))))) (or (or (or (= (x131 (x131 x124 x104) x104) x124) (or (= x109 (x131 (x131 x109 x104) x104)) (= x138 (x131 (x131 x138 x104) x104)))) (= x76 (x131 (x131 x76 x104) x104))) (= (x131 (x131 x104 x104) x104) x104))))
(assert (not (and (= (x131 x104 x104) x138) (and (and (and (= (x131 x104 x109) x76) (and (= (x131 x104 x138) x104) (and (= (x131 x76 x104) x124) (and (and (= x109 (x131 x76 x124)) (and (= x104 (x131 x76 x109)) (and (= (x131 x76 x138) x138) (and (= (x131 x124 x104) x104) (and (and (and (and (and (and (and (= x104 (x131 x109 x124)) (and (and (and (and (= x104 (x131 x138 x76)) (and (= (x131 x138 x124) x138) (and (= x109 (x131 x138 x109)) (= (x131 x138 x138) x124)))) (= x76 (x131 x138 x104))) (= x76 (x131 x109 x138))) (= x138 (x131 x109 x109)))) (= x124 (x131 x109 x76))) (= x109 (x131 x109 x104))) (= x109 (x131 x124 x138))) (= x124 (x131 x124 x109))) (= (x131 x124 x124) x76)) (= x138 (x131 x124 x76))))))) (= (x131 x76 x76) x76))))) (= x124 (x131 x104 x124))) (= (x131 x104 x76) x109)))))
(assert (let ((x63 (x131 x76 x76)) (x67 (x131 x104 x104)) (x98 (x131 x124 x124)) (x135 (x131 x109 x109)) (x141 (x131 x138 x138))) (or (and (not (= x104 x67)) (and (not (= x63 x104)) (and (and (not (= x141 x104)) (not (= x104 x135))) (not (= x104 x98))))) (or (or (and (not (= x124 x67)) (and (and (and (not (= x124 x141)) (not (= x135 x124))) (not (= x124 x98))) (not (= x124 x63)))) (or (and (not (= x67 x109)) (and (and (not (= x98 x109)) (and (not (= x135 x109)) (not (= x109 x141)))) (not (= x63 x109)))) (and (and (and (not (= x138 x98)) (and (not (= x138 x141)) (not (= x135 x138)))) (not (= x63 x138))) (not (= x138 x67))))) (and (not (= x76 x67)) (and (not (= x63 x76)) (and (not (= x76 x98)) (and (not (= x141 x76)) (not (= x76 x135))))))))))
(assert (or (= (x131 x104 x104) x104) (or (= (x131 x76 x76) x76) (or (= (x131 x124 x124) x124) (or (= x109 (x131 x109 x109)) (= (x131 x138 x138) x138))))))
(assert (let ((x69 (x131 x109 x104)) (x82 (x131 x104 x109)) (x48 (x131 x104 x76)) (x11 (x131 x104 x104)) (x67 (x131 x138 x76)) (x40 (x131 x138 x104)) (x55 (x131 x124 x124)) (x38 (x131 x124 x138)) (x98 (x131 x138 x109)) (x113 (x131 x109 x124)) (x135 (x131 x138 x138)) (x78 (x131 x109 x76)) (x63 (x131 x138 x124)) (x130 (x131 x76 x138)) (x117 (x131 x76 x76)) (x5 (x131 x76 x104)) (x44 (x131 x76 x124)) (x152 (x131 x104 x124)) (x30 (x131 x124 x104)) (x31 (x131 x109 x138)) (x14 (x131 x104 x138)) (x79 (x131 x76 x109)) (x23 (x131 x109 x109)) (x123 (x131 x124 x76)) (x21 (x131 x124 x109))) (let ((x119 (= x76 x23)) (x94 (= x104 x123)) (x49 (= x76 x55)) (x105 (= x104 x98)) (x139 (= x98 x138)) (x92 (= x14 x104)) (x46 (= x69 x124)) (x140 (= x138 x113)) (x121 (= x38 x124)) (x154 (= x79 x138)) (x106 (= x69 x76)) (x18 (= x109 x11)) (x61 (= x138 x5)) (x24 (= x30 x124)) (x127 (= x130 x109)) (x122 (= x76 x113)) (x157 (= x76 x123)) (x89 (= x76 x152)) (x52 (= x104 x117)) (x148 (= x124 x5)) (x9 (= x109 x117)) (x7 (= x109 x55)) (x128 (= x104 x78)) (x2 (= x76 x30)) (x143 (= x113 x109)) (x29 (= x123 x109)) (x146 (= x109 x48)) (x142 (= x109 x69)) (x10 (= x78 x124)) (x33 (= x23 x109)) (x97 (= x67 x138)) (x108 (= x30 x138)) (x151 (= x124 x23)) (x75 (= x78 x76)) (x83 (= x79 x76)) (x34 (= x40 x76)) (x36 (= x21 x104)) (x70 (= x138 x44)) (x155 (= x63 x138)) (x96 (= x109 x152)) (x59 (= x123 x138)) (x159 (= x5 x109)) (x141 (= x138 x135)) (x158 (= x82 x109)) (x19 (= x5 x104)) (x99 (= x40 x109)) (x103 (= x138 x11)) (x153 (= x138 x38)) (x64 (= x76 x21)) (x41 (= x82 x104)) (x134 (= x113 x104)) (x20 (= x109 x30)) (x90 (= x124 x63)) (x110 (= x55 x104)) (x42 (= x124 x44)) (x43 (= x117 x124)) (x35 (= x76 x117)) (x101 (= x31 x138)) (x66 (= x76 x67)) (x81 (= x123 x124)) (x25 (= x23 x138)) (x126 (= x152 x138)) (x51 (= x113 x124)) (x115 (= x14 x109)) (x71 (= x21 x138)) (x58 (= x98 x124)) (x72 (= x138 x117)) (x39 (= x79 x124)) (x6 (= x135 x124)) (x57 (= x69 x104)) (x149 (= x63 x104)) (x77 (= x76 x11)) (x95 (= x76 x135)) (x62 (= x67 x124)) (x150 (= x138 x14)) (x120 (= x130 x76)) (x132 (= x124 x82)) (x17 (= x48 x138)) (x3 (= x109 x98)) (x12 (= x138 x78)) (x45 (= x79 x109)) (x114 (= x76 x44)) (x136 (= x124 x31)) (x16 (= x124 x130)) (x15 (= x82 x76)) (x74 (= x44 x104)) (x111 (= x104 x135)) (x68 (= x138 x82)) (x8 (= x104 x130)) (x50 (= x48 x124)) (x60 (= x104 x30)) (x22 (= x76 x14)) (x129 (= x109 x21)) (x145 (= x124 x40)) (x116 (= x38 x109)) (x137 (= x55 x138)) (x28 (= x40 x104)) (x84 (= x63 x109)) (x112 (= x38 x76)) (x1 (= x109 x135)) (x102 (= x69 x138)) (x56 (= x63 x76)) (x65 (= x104 x31)) (x100 (= x138 x40)) (x47 (= x55 x124)) (x144 (= x104 x79)) (x107 (= x109 x44)) (x147 (= x67 x109)) (x37 (= x48 x76)) (x88 (= x104 x11)) (x54 (= x104 x48)) (x93 (= x11 x124)) (x73 (= x76 x31)) (x91 (= x124 x14)) (x118 (= x124 x152)) (x133 (= x76 x5)) (x26 (= x109 x31)) (x32 (= x21 x124)) (x53 (= x23 x104)) (x125 (= x104 x152)) (x156 (= x38 x104)) (x86 (= x138 x130)) (x13 (= x67 x104)) (x85 (= x78 x109)) (x87 (= x98 x76))) (and (and (and (and (and (and (and (or (or (or x112 (or x73 x95)) x120) x22) (or (or (or x56 (or x87 x95)) x66) x34)) (and (and (or (or x62 (or (or x58 x6) x90)) x145) (or (or x16 (or (or x6 x136) x121)) x91)) (and (and (or x99 (or x147 (or (or x1 x3) x84))) (or (or (or (or x1 x26) x116) x127) x115)) (and (or (or x86 (or x153 (or x101 x141))) x150) (or (or x97 (or (or x139 x141) x155)) x100))))) (and (or (or (or x149 (or x111 x105)) x13) x28) (or (or x8 (or (or x65 x111) x156)) x92))) (and (and (or (or x128 (or x134 (or x53 x65))) x57) (or (or (or (or x105 x53) x36) x144) x41)) (and (and (and (or (or x39 (or (or x151 x58) x32)) x132) (or (or (or (or x151 x136) x51) x10) x46)) (and (and (or (or (or x71 (or x139 x25)) x154) x68) (or (or (or x140 (or x101 x25)) x12) x102)) (and (or x142 (or x85 (or x143 (or x33 x26)))) (or x158 (or (or x129 (or x33 x3)) x45))))) (and (or x106 (or x75 (or (or x73 x119) x122))) (or x15 (or (or (or x119 x87) x64) x83)))))) (and (and (or (or (or x110 (or x134 x149)) x74) x125) (or (or x94 (or (or x36 x156) x110)) x60)) (and (and (and (and (or (or x107 (or (or x84 x143) x7)) x96) (or (or (or x7 (or x116 x129)) x29) x20)) (and (or x126 (or (or (or x155 x140) x137) x70)) (or (or (or (or x71 x153) x137) x59) x108))) (and (or x24 (or (or (or x32 x121) x47) x81)) (or (or x42 (or (or x90 x51) x47)) x118))) (and (or (or (or (or x56 x122) x49) x114) x89) (or (or (or x49 (or x112 x64)) x157) x2))))) (and (and (or (or (or x74 (or x144 x8)) x52) x19) (or x54 (or x52 (or (or x13 x128) x94)))) (and (and (and (or x148 (or x43 (or x42 (or x39 x16)))) (or (or (or x81 (or x62 x10)) x43) x50)) (and (and (or x159 (or x9 (or (or x127 x45) x107))) (or (or x9 (or x29 (or x85 x147))) x146)) (and (or x61 (or x72 (or x70 (or x86 x154)))) (or x17 (or (or x59 (or x97 x12)) x72))))) (and (or (or (or x114 (or x83 x120)) x35) x133) (or x37 (or x35 (or x157 (or x66 x75)))))))) (and (and (or x88 (or (or (or x57 x28) x60) x19)) (or x88 (or x54 (or (or x92 x41) x125)))) (and (and (or (or (or (or x22 x15) x89) x37) x77) (or x77 (or x133 (or (or x34 x106) x2)))) (and (and (or x93 (or (or (or x46 x145) x24) x148)) (or (or (or (or x132 x91) x118) x50) x93)) (and (and (or x103 (or (or (or x100 x102) x108) x61)) (or x103 (or (or x126 (or x68 x150)) x17))) (and (or (or (or (or x142 x99) x20) x159) x18) (or (or x146 (or x96 (or x115 x158))) x18))))))))))
(assert (let ((x141 (= x138 (x131 x138 x138))) (x31 (x131 x138 x124)) (x98 (x131 x109 x138)) (x113 (= x76 (x131 x76 x76))) (x21 (x131 x76 x104)) (x139 (x131 x124 x76)) (x136 (x131 x104 x124)) (x33 (x131 x124 x104)) (x1 (x131 x124 x138)) (x25 (x131 x76 x109)) (x151 (= (x131 x104 x104) x104)) (x111 (x131 x138 x76)) (x67 (= x109 (x131 x109 x109))) (x6 (= x124 (x131 x124 x124))) (x101 (x131 x109 x76)) (x69 (x131 x138 x104)) (x95 (x131 x76 x138)) (x3 (x131 x109 x104)) (x79 (x131 x104 x109)) (x130 (x131 x124 x109)) (x78 (x131 x104 x138)) (x38 (x131 x109 x124)) (x23 (x131 x76 x124)) (x58 (x131 x104 x76)) (x63 (x131 x138 x109))) (let ((x14 (or (= x136 x104) (or (or (or (= x38 x109) (= x31 x138)) x6) (= x76 x23)))) (x40 (or (or (= x25 x76) (or (or x67 (= x138 x63)) (= x130 x124))) (= x104 x79))) (x26 (or (or (or (or (= x138 x111) (= x109 x101)) (= x139 x124)) x113) (= x104 x58))) (x82 (or (or (= x21 x76) (or (or (= x138 x69) (= x109 x3)) (= x33 x124))) x151)) (x135 (or (or (= x76 x95) (or (or (= x109 x98) x141) (= x1 x124))) (= x104 x78)))) (and (and (and (or x26 (not (= x21 x104))) (and (or x26 (not x113)) (and (or x26 (not (= x23 x124))) (and (or (not (= x25 x109)) x26) (or (not (= x95 x138)) x26))))) (and (and (and (or (not (= x3 x104)) x40) (and (and (or (not (= x124 x38)) x40) (and (or x40 (not (= x138 x98))) (or (not x67) x40))) (or x40 (not (= x76 x101))))) (and (and (and (and (or x135 (not (= x109 x63))) (or x135 (not x141))) (or (not (= x31 x124)) x135)) (or x135 (not (= x76 x111)))) (or (not (= x104 x69)) x135))) (and (and (or x14 (not (= x76 x139))) (and (and (or (not (= x130 x109)) x14) (or x14 (not (= x1 x138)))) (or x14 (not x6)))) (or x14 (not (= x104 x33)))))) (and (and (and (or x82 (not (= x124 x136))) (and (or x82 (not (= x78 x138))) (or x82 (not (= x109 x79))))) (or x82 (not (= x76 x58)))) (or (not x151) x82))))))
(assert (or (and (and (not (= (x131 (x131 x76 x104) x76) x104)) (and (and (not (= (x131 (x131 x138 x104) x138) x104)) (not (= x104 (x131 (x131 x109 x104) x109)))) (not (= x104 (x131 (x131 x124 x104) x124))))) (not (= (x131 (x131 x104 x104) x104) x104))) (or (or (and (and (not (= x124 (x131 (x131 x76 x124) x76))) (and (not (= (x131 (x131 x124 x124) x124) x124)) (and (not (= x124 (x131 (x131 x109 x124) x109))) (not (= (x131 (x131 x138 x124) x138) x124))))) (not (= x124 (x131 (x131 x104 x124) x104)))) (or (and (and (and (and (not (= x109 (x131 (x131 x138 x109) x138))) (not (= x109 (x131 (x131 x109 x109) x109)))) (not (= x109 (x131 (x131 x124 x109) x124)))) (not (= (x131 (x131 x76 x109) x76) x109))) (not (= (x131 (x131 x104 x109) x104) x109))) (and (and (and (not (= (x131 (x131 x124 x138) x124) x138)) (and (not (= x138 (x131 (x131 x138 x138) x138))) (not (= x138 (x131 (x131 x109 x138) x109))))) (not (= (x131 (x131 x76 x138) x76) x138))) (not (= (x131 (x131 x104 x138) x104) x138))))) (and (not (= x76 (x131 (x131 x104 x76) x104))) (and (not (= x76 (x131 (x131 x76 x76) x76))) (and (not (= (x131 (x131 x124 x76) x124) x76)) (and (not (= (x131 (x131 x138 x76) x138) x76)) (not (= x76 (x131 (x131 x109 x76) x109))))))))))
(assert (let ((x69 (x131 x109 x104)) (x141 (x131 x138 x138)) (x26 (x131 x124 x76)) (x113 (x131 x104 x76)) (x3 (x131 x124 x104)) (x135 (x131 x109 x138)) (x33 (x131 x76 x104)) (x38 (x131 x76 x109)) (x139 (x131 x138 x76)) (x130 (x131 x104 x109)) (x1 (x131 x109 x109)) (x78 (x131 x138 x104)) (x25 (x131 x109 x76)) (x40 (x131 x138 x109)) (x21 (x131 x104 x104)) (x111 (x131 x76 x124)) (x98 (x131 x124 x138)) (x14 (x131 x138 x124)) (x63 (x131 x76 x138)) (x67 (x131 x104 x138)) (x6 (x131 x109 x124)) (x95 (x131 x124 x124)) (x101 (x131 x104 x124)) (x31 (x131 x124 x109)) (x23 (x131 x76 x76))) (and (and (and (and (and (not (= x3 x33)) (and (not (= x21 x69)) (and (and (and (not (= x78 x21)) (and (and (not (= x78 x69)) (not (= x3 x78))) (not (= x33 x78)))) (not (= x69 x3))) (not (= x69 x33))))) (not (= x3 x21))) (not (= x33 x21))) (and (and (not (= x113 x23)) (and (and (and (and (and (and (and (not (= x23 x139)) (and (not (= x26 x139)) (not (= x25 x139)))) (not (= x113 x139))) (not (= x26 x25))) (not (= x23 x25))) (not (= x113 x25))) (not (= x23 x26))) (not (= x26 x113)))) (and (and (and (and (and (and (and (not (= x38 x1)) (and (and (not (= x130 x40)) (and (and (not (= x1 x40)) (not (= x31 x40))) (not (= x40 x38)))) (not (= x1 x31)))) (not (= x1 x130))) (not (= x31 x38))) (not (= x31 x130))) (not (= x130 x38))) (and (and (not (= x67 x98)) (and (and (and (and (and (not (= x141 x67)) (and (not (= x63 x141)) (and (not (= x141 x135)) (not (= x141 x98))))) (not (= x135 x98))) (not (= x135 x63))) (not (= x135 x67))) (not (= x63 x98)))) (not (= x63 x67)))) (and (not (= x101 x111)) (and (and (not (= x95 x111)) (and (and (not (= x111 x6)) (and (not (= x6 x95)) (and (not (= x14 x101)) (and (and (not (= x14 x95)) (not (= x6 x14))) (not (= x14 x111)))))) (not (= x101 x6)))) (not (= x101 x95))))))) (and (and (and (not (= x21 x101)) (and (not (= x101 x113)) (and (not (= x21 x130)) (and (not (= x113 x130)) (and (not (= x130 x101)) (and (and (not (= x113 x67)) (and (not (= x130 x67)) (not (= x67 x101)))) (not (= x67 x21)))))))) (not (= x21 x113))) (and (and (and (and (not (= x111 x23)) (and (and (not (= x38 x23)) (and (and (not (= x33 x63)) (and (and (not (= x38 x63)) (not (= x111 x63))) (not (= x23 x63)))) (not (= x111 x38)))) (not (= x38 x33)))) (not (= x111 x33))) (not (= x23 x33))) (and (and (and (not (= x78 x139)) (and (not (= x78 x14)) (and (and (and (not (= x139 x40)) (and (not (= x40 x14)) (and (not (= x141 x78)) (and (and (not (= x141 x14)) (not (= x141 x40))) (not (= x139 x141)))))) (not (= x40 x78))) (not (= x14 x139))))) (and (not (= x69 x25)) (and (and (and (and (not (= x1 x25)) (and (not (= x6 x1)) (and (not (= x135 x69)) (and (not (= x135 x25)) (and (not (= x135 x1)) (not (= x135 x6))))))) (not (= x1 x69))) (not (= x25 x6))) (not (= x6 x69))))) (and (not (= x26 x3)) (and (and (not (= x95 x26)) (and (and (not (= x26 x31)) (and (not (= x31 x95)) (and (and (and (not (= x31 x98)) (not (= x98 x95))) (not (= x98 x26))) (not (= x3 x98))))) (not (= x3 x31)))) (not (= x95 x3))))))))))
(check-sat)
(exit)
